50
0 1
0 6
0 9
0 10
0 11
0 18
0 21
0 25
0 28
0 29
0 32
0 36
0 37
0 38
0 39
0 40
0 41
0 45
0 46
0 49
1 6
1 7
1 8
1 9
1 11
1 12
1 15
1 16
1 17
1 21
1 24
1 26
1 27
1 28
1 30
1 32
1 34
1 36
1 37
1 39
1 41
1 45
1 46
1 47
1 48
1 49
2 4
2 6
2 8
2 9
2 11
2 14
2 15
2 17
2 18
2 20
2 22
2 25
2 27
2 29
2 31
2 32
2 34
2 38
2 39
2 41
2 42
2 46
2 48
2 49
3 4
3 5
3 7
3 10
3 11
3 12
3 15
3 17
3 20
3 21
3 25
3 28
3 29
3 31
3 32
3 34
3 38
3 39
3 42
3 43
3 44
3 45
3 47
3 48
3 49
4 8
4 9
4 10
4 12
4 13
4 17
4 20
4 25
4 27
4 31
4 32
4 33
4 35
4 37
4 39
4 41
4 43
4 46
4 48
5 6
5 10
5 13
5 15
5 16
5 17
5 20
5 21
5 23
5 25
5 28
5 31
5 33
5 36
5 37
5 44
5 49
6 8
6 10
6 12
6 13
6 14
6 15
6 16
6 18
6 21
6 23
6 25
6 26
6 27
6 28
6 30
6 34
6 35
6 36
6 37
6 39
6 40
6 42
6 43
6 44
6 45
6 46
7 8
7 11
7 13
7 15
7 16
7 26
7 28
7 29
7 31
7 34
7 35
7 36
7 37
7 38
7 39
7 40
7 42
7 43
7 45
7 49
8 11
8 12
8 14
8 15
8 18
8 20
8 23
8 25
8 26
8 27
8 28
8 29
8 34
8 35
8 36
8 37
8 40
8 41
8 44
8 45
8 46
8 48
9 10
9 11
9 13
9 14
9 16
9 17
9 20
9 21
9 23
9 24
9 25
9 26
9 31
9 32
9 34
9 36
9 38
9 41
9 43
9 46
9 47
9 48
9 49
10 12
10 13
10 16
10 17
10 20
10 21
10 22
10 23
10 24
10 25
10 26
10 32
10 33
10 35
10 36
10 40
10 42
10 45
11 12
11 14
11 16
11 18
11 19
11 20
11 22
11 28
11 30
11 33
11 34
11 35
11 36
11 38
11 39
11 41
11 43
11 44
11 45
11 49
12 13
12 15
12 16
12 17
12 18
12 19
12 20
12 23
12 24
12 25
12 28
12 29
12 30
12 32
12 34
12 35
12 37
12 39
12 40
12 44
12 46
12 48
13 14
13 15
13 17
13 20
13 23
13 24
13 25
13 28
13 30
13 31
13 35
13 36
13 37
13 38
13 39
13 40
13 46
13 47
13 49
14 15
14 16
14 18
14 19
14 21
14 24
14 25
14 29
14 34
14 36
14 39
14 40
14 46
14 47
14 48
14 49
15 19
15 21
15 24
15 25
15 26
15 27
15 28
15 34
15 38
15 40
15 41
15 42
15 43
15 44
15 49
16 18
16 22
16 23
16 26
16 28
16 29
16 30
16 31
16 34
16 35
16 36
16 37
16 38
16 40
16 41
16 42
16 43
16 44
16 45
16 47
17 18
17 19
17 22
17 23
17 24
17 25
17 26
17 28
17 30
17 31
17 34
17 35
17 37
17 42
17 44
17 46
17 49
18 20
18 21
18 23
18 24
18 25
18 32
18 39
18 42
18 44
18 48
19 22
19 23
19 30
19 33
19 34
19 36
19 37
19 38
19 39
19 41
19 42
19 45
19 46
19 47
19 48
19 49
20 23
20 25
20 26
20 27
20 28
20 30
20 31
20 34
20 36
20 39
20 40
20 42
20 43
20 46
20 48
21 22
21 23
21 24
21 25
21 26
21 28
21 29
21 34
21 36
21 37
21 38
21 39
21 40
21 44
21 46
22 23
22 24
22 25
22 27
22 28
22 30
22 31
22 32
22 36
22 41
22 42
22 44
22 48
22 49
23 24
23 27
23 28
23 29
23 30
23 32
23 35
23 36
23 41
23 42
23 44
23 45
23 47
23 48
24 30
24 32
24 33
24 35
24 38
24 39
24 40
24 41
24 43
24 46
24 48
25 28
25 30
25 31
25 32
25 33
25 34
25 35
25 37
25 40
25 42
25 43
25 45
25 46
25 47
25 48
26 29
26 31
26 33
26 40
26 41
26 43
26 44
26 46
26 47
27 28
27 29
27 30
27 34
27 36
27 37
27 38
27 40
27 43
27 44
27 45
27 46
27 47
27 48
28 29
28 33
28 35
28 36
28 37
28 38
28 39
28 40
28 41
28 42
28 43
28 45
28 48
28 49
29 30
29 31
29 32
29 33
29 34
29 37
29 38
29 39
29 40
29 43
29 44
29 46
29 49
30 31
30 33
30 37
30 41
30 42
30 46
30 49
31 34
31 37
31 39
31 45
31 47
31 48
31 49
32 33
32 36
32 37
32 38
32 42
32 43
32 44
32 47
32 48
33 37
33 42
34 35
34 40
34 43
34 44
34 46
34 47
35 37
35 41
35 42
35 44
35 45
35 46
36 37
36 38
36 40
36 41
36 42
36 43
36 45
36 47
36 48
36 49
37 40
37 41
37 42
37 43
37 44
37 45
37 46
37 47
38 40
38 41
38 42
38 43
38 44
38 46
38 47
39 42
39 43
39 45
39 46
39 49
40 42
40 44
40 46
41 42
41 44
41 46
41 47
41 49
42 43
42 47
42 48
42 49
43 46
43 48
44 46
44 49
45 46
45 49
46 47
46 49
48 49
